18,1	0,0	11,1	8,0	0,0	0,0	0,0	0,0	0,0	16,4
15,6	9,3	0,0	9,6	6,7	0,0	0,0	10,0	0,0	0,0
0,0	0,0	10,3	0,0	12,1	14,4	0,0	0,0	9,1	0,0
18,6	0,0	5,7	0,0	0,0	0,0	10,7	0,0	0,0	0,0
0,0	9,5	0,0	15,7	18,7	0,0	0,0	6,7	0,0	0,0
0,0	8,8	18,3	0,0	11,4	5,5	0,0	0,0	9,8	0,0
0,0	6,6	0,0	9,8	0,0	0,0	14,3	0,0	0,0	13,9
6,1	0,0	19,6	0,0	0,0	0,0	0,0	0,0	0,0	10,3
0,0	18,6	0,0	14,7	6,5	0,0	0,0	16,6	0,0	0,0
0,0	0,0	18,7	0,0	0,0	18,4	11,9	0,0	0,0	15,5
0,0	10,1	0,0	0,0	11,0	0,0	14,8	0,0	18,1	15,9
11,5	0,0	6,7	0,0	18,6	0,0	11,1	11,9	9,4	0,0
0,0	17,9	0,0	0,0	0,0	16,2	0,0	16,3	16,1	17,9
8,3	12,2	17,5	0,0	0,0	19,5	0,0	14,2	5,4	0,0
9,7	0,0	15,4	0,0	9,8	14,0	6,3	12,3	0,0	0,0
0,0	14,0	0,0	16,6	0,0	16,1	0,0	8,6	0,0	0,0
12,3	0,0	5,4	12,4	16,0	0,0	0,0	12,0	0,0	0,0
0,0	0,0	6,1	0,0	0,0	6,4	5,2	0,0	12,1	12,8
6,5	0,0	0,0	6,1	11,2	13,2	19,6	8,3	0,0	19,8
0,0	8,7	0,0	10,4	0,0	0,0	19,4	0,0	11,0	15,8
									
2,9	3,3	4,6	5,0	4,0	4,4	2,7	3,8	4,1	3,3
